0
52
135
23
0
0
1180
32
0
19
56
22
25
15
98
1216
19
28
46
0
531
167
28
395
31
21
66
36
445
50
62
21
42
235
0
60
135
26
11
0
9
0
538
10
30
29
24
19
1236
0
81
0
28
47
93
29
44
487
20
75
0
234
75
36
30
260
0
20
11
18
80
53
15
1324
20
463
196
0
74
20
34
8
22
412
0
23
54
128
0
60
23
43
30
21
77
0
8
19
29
37
